3774
3774
3774
3774
3774
3727
3727
3727
3727
3727
3727
3727
3727
3727
3727
3727
3727
3727
3727
3727
3727
3727
3727
3727
3727
3727
3727
3727
3714
3714
3714
3714
3714
3714
3714
3714
3714
3714
3714
3714
3714
3680
3680
3680
3680
3680
3680
3680
3680
3680
3680
3680
3680
3680
3680
3680
3680
3680
3680
3680
3680
3680
3680
3680
3680
3680
3680
3680
3680
3680
3680
3641
3641
3641
3641
3641
3641
3641
3641
3641
3641
3641
3641
3641
3641
3641
3641
3641
3641
3641
3641
3641
3641
3641
3641
3641
3641
3641
3641
3641
3641
3641
3641
3641
3641
3641
3641
3641
3641
3641
3641
3641
3641
3641
3641
3641
3641
3641
3641
3641
3641
3641
3641
3641
3641
3641
3641
3641
3641
3641
3641
3641
3641
3641
3641
3641
3641
3641
3641
3641
3641
3641
3641
3641
3641
3641
3641
3641
3641
3641
3641
3641
3641
3641
3641
3641
3641
3641
3641
3641
3641
3641
3641
3641
3641
3641
3641
3641
3641
3641
3641
3641
3641
3641
3641
3641
3641
3641
3641
3641
3641
3641
3641
3641
3641
3641
3641
3641
3641
3641
3641
3641
3641
3641
3641
3641
3641
3641
3641
3641
3641
3641
3641
3641
3641
3641
3641
3641
3641
3641
3641
3641
3641
3641
3641
3641
3641
3641
3641
3641
3641
3641
3641
3641
3641
3641
3641
3641
3641
3641
3641
3641
3641
3641
3641
3641
3641
3641
3641
3641
3641
3641
3641
3641
3641
3641
3641
3641
3641
3641
3641
3641
3641
3641
3641
3641
3641
3641
3641
3641
3641
3641
3641
3641
3641
3641
3641
3641
3641
3641
3636
3636
3636
3636
3636
3636
3636
3636
3636
3636
3636
3636
3636
3636
3636
3636
3636
3636
3636
3636
3636
3636
3636
3636
3636
3636
3636
3636
3636
3636
3636
3636
3636
3636
3636
3636
3636
3636
3636
3636
3636
3636
3636
3636
3636
3636
3636
3636
3636
3636
3636
3636
3636
3636
3636
3636
3636
3636
3636
3636
3636
3636
3636
3636
3636
3636
3636
3636
3636
3636
3636
3636
3636
3636
3636
3636
3636
3636
3636
3636
3636
3636
3636
3636
3636
3636
3636
3636
3636
3636
3636
3636
3636
3636
3636
3636
3636
3636
3636
3636
3636
3636
3636
3636
3636
3636
3636
3636
3636
3636
3636
3636
3636
3636
3636
3636
3636
3636
3636
3636
3636
3636
3636
3636
3636
3636
3636
3636
3636
3636
3636
3636
3636
3636
3636
3636
3636
3636
3636
3636
3636
3636
3636
3636
3636
3636
3636
3636
3636
3636
3636
3636
3636
3636
3636
3636
3636
3636
3636
3636
3636
3636
3636
3636
3636
3636
3636
3636
3636
3636
3636
3636
3636
3636
3636
3636
3636
3636
3636
3636
3636
3636
3636
3636
3636
3636
3636
3636
3636
3636
3636
3636
3636
3636
3636
3636
3636
3636
3636
3636
3636
3636
3636
3636
3636
3636
3636
3636
3636
3636
3636
3636
3636
3636
3636
3636
3636
3636
3636
3636
3636
3636
3636
3636
3636
3636
3636
3636
3636
3636
3636
3636
3636
3636
3636
3636
3636
3636
3636
3636
3636
3636
3636
3636
3636
3636
3636
3636
3636
3636
3636
3636
3636
3636
3636
3636
3636
3636
3636
3636
3636
3636
3636
3636
3636
3636
3636
3636
3636
3636
3636
3636
3636
3636
3636
3636
3636
3636
3636
3636
3636
3636
3636
3636
3636
3636
3636
3636
3636
3636
3636
3636
3636
3636
3636
3636
3636
3636
3636
3636
3636
3636
3636
3636
3636
3636
3636
3636
3636
3636
3636
3636
3636
3636
3636
3636
3636
3636
3636
3636
3636
3636
3636
3636
3636
3636
3636
3636
3636
3636
3636
3636
3636
3636
3636
3636
3636
3636
3636
3636
3636
3636
3636
3636
3636
3636
3636
3636
3636
3636
3636
3636
3636
3636
3636
3636
3636
3636
3636
3636
3636
3636
3636
3636
3636
3636
3636
3636
3636
3636
3636
3636
3636
3636
3636
3636
3636
3636
3636
3636
3636
3636
3636
3636
3636
3636
3636
3636
3636
3636
3636
3636
3636
3636
3636
3636
3636
3636
3636
3636
3636
3634
3634
3634
3634
3634
3634
3634
3634
3634
3634
3634
3634
3634
3634
3634
3634
3634
3634
3634
3634
3634
3634
3634
3634
3634
3634
3634
3634
3634
3634
3634
3634
3634
3634
3634
3634
3634
3634
3634
3634
3634
3634
3634
3634
3634
3634
3634
3634
3634
3634
3634
3634
3634
3634
3634
3634
3634
3634
3634
3634
3634
3634
3634
3634
3634
3634
3634
3634
3634
3634
3634
3634
3634
3634
3634
3634
3634
3634
3634
3634
3634
3634
3634
3634
3634
3634
3634
3634
3634
3634
3634
3634
3634
3634
3634
3634
3634
3634
3634
3634
3634
3634
3634
3634
3634
3634
3634
3634
3634
3634
3634
3634
3634
3634
3634
3634
3634
3634
3634
3634
3634
3634
3634
3634
3634
3634
3634
3634
3634
3634
3634
3634
3634
3634
3634
3634
3634
3634
3634
3634
3634
3634
3634
3634
3629
3629
3629
3629
3629
3629
3629
3629
3629
3629
3629
3629
3629
3629
3629
3629
3629
3629
3629
3629
3629
3629
3629
3629
3629
3629
3629
3629
3629
3629
3629
3629
3629
3629
3629
3629
3629
3629
3629
3629
3629
3629
3629
3629
3629
3629
3629
3629
3629
3629
3629
3629
3629
3629
3629
3629
3629
3629
3629
3629
3629
3629
3629
3629
3629
3629
3629
3629
3629
3629
3629
3629
3629
3629
3629
3629
3629
3629
3629
3629
3629
3629
3629
3629
3629
3629
3629
3629
3629
3629
3629
3629
3629
3629
3629
3629
3629
3629
3629
3629
3629
3629
3629
3629
3629
3629
3629
3629
3629
3620
3620
3620
3620
3620
3620
3620
3620
3620
3620
3620
3620
3620
3620
3620
3620
3620
3620
3620
3620
3620
3620
3620
3620
3620
3620
3620
3620
3620
3620
3620
3620
3620
3620
3620
3620
3620
3620
3620
3620
3620
3620
3620
3620
3620
3620
3620
3620
3620
3620
3620
3620
3620
3620
3620
3620
3620
3620
3620
3620
3620
3620
3620
3620
3620
3620
3620
3620
3620
3620
3620
3620
3620
3620
3620
3620
3620
3620
3620
3620
3620
3620
3620
3620
3620
3620
3620
3620
3620
3620
3620
3620
3620
3620
3620
3620
3620
3620
3620
3620
3620
3620
3620
3620
3620
3620
3620
3620
3620
3620
3620
3620
3620
3620
3620
3620
3620
3620
3620
3620
3620
3620
3620
3620
3620
3620
3620
3620
3620
3620
3620
3620
3620
3620
3620
3620
3620
3620
3620
3620
3620
3620
3620
3620
3620
3620
3620
3620
3620
3620
3620
3620
3620
3620
3620
3620
3620
3620
3620
3620
3620
3620
3620
3620
3620
3620
3620
3620
3620
3620
3620
3620
3620
3620
3620
3620
3620
3620
3620
3620
3620
3620
3620
3620
3620
3620
3620
3620
3620
3620
3620
3620
3620
3620
3620
3620
3620
3620
3620
3620
3620
3620
3620
3620
3620
3620
3620
3620
3620
3620
3620
3620
3620
3620
3620
3620
3620
3620
3620
3620
3620
3620
3620
3620
3620
3620
3574
3574
3574
3574
3574
3574
3574
3574
3574
3574
3574
3574
3574
3574
3574
3574
3574
3574
3574
3574
3574
3574
3574
3574
3574
3574
3574
3574
3574
3574
3574
3574
3574
3574
3574
3574
3574
3574
3574
3574
3574
3574
3574
3574
3574
3574
3574
3574
3574
3574
3574
3574
3574
3574
3574
3574
3574
3574
3574
3574
3574
3574
3574
3574
3574
3574
3574
3574
3574
3574
3574
3574
3574
3574
3574
3574
3574
3574
3574
3574
3574
3574
3574
3574
3574
3574
3574
3574
3574
3574
3574
3574
3574
3574
3574
3574
3574
3574
3574
3574
3574
3574
3574
3574
3574
3574
3574
3574
3574
3574
3574
3574
3574
3574
3574
3574
3574
3574
3574
3574
3574
3574
3574
3574
3574
3574
3574
3574
3574
3574
3574
3574
3574
3574
3574
3574
3574
3574
3574
3574
3574
3574
3574
3574
3574
3574
3574
3574
3574
3574
3574
3574
3574
3574
3574
3574
3574
3574
3574
3574
3574
3574
3574
3574
3574
3574
3574
3574
3574
3574
3574
3574
3574
3574
3574
3574
3574
3574
3574
3574
3574
3574
3574
3574
3574
3574
3574
3574
3574
3574
3574
3574
3574
3574
3574
3574
3574
3574
3574
3574
3574
3574
3574
3574
3574
3574
3574
3574
3574
3574
3574
3574
3574
3574
3574
3574
3574
3574
3574
3574
3574
3574
3574
3574
3574
3574
3574
3574
3574
3574
3574
3574
3574
3574
3574
3574
3574
3574
3574
3574
3574
3574
3574
3574
3574
3574
3574
3574
3574
3574
3574
3574
3574
3574
3574
3574
3574
3574
3574
3574
3574
3574
3574
3574
3574
3574
3574
3574
3574
3574
3574
3574
3574
3574
3574
3574
3574
3574
3574
3574
3574
3574
3574
3574
3574
3574
3574
3574
3574
3574
3574
3574
3574
3574
3574
3574
3574
3574
3574
3574
3574
3574
3574
3574
3574
3574
3574
3574
3574
3574
3574
3574
3574
3574
3574
3574
3574
3574
3574
3574
3574
3574
3574
3574
3574
3574
3574
3574
3574
3574
3574
3574
3574
3574
3574
3574
3574
3574
3574
3574
3574
3574
3574
3574
3574
3574
3574
3574
3574
3574
3574
3574
3574
3574
3574
3574
3574
3574
3574
3574
3574
3574
3574
3574
3574
3574
3574
3574
3574
3574
3574
3574
3574
3574
3574
3574
3574
3574
3574
3574
3574
3574
3574
3574
3574
3574
3574
3574
3574
3574
3574
3574
3574
3574
3574
3574
3574
3574
3574
3574
3574
3574
3574
3574
3574
3574
3574
3574
3574
3574
3574
3574
3574
3574
3574
3574
3574
3574
3574
3574
3574
3574
3574
3574
3574
3574
3574
3574
3574
3574
3574
3574
3574
3574
3574
3574
3574
3574
3574
3574
3574
3574
3574
3574
3574
3574
3574
3574
3574
3574
3574
3574
3574
3574
3574
3574
3574
3574
3574
3574
3574
3574
3574
3574
3574
3574
3574
3574
3574
3574
3574
3574
3574
3574
3574
3574
3574
3574
3574
3574
3574
3574
3574
3574
3574
3574
3574
3574
3574
3574
3574
3574
3574
3574
3574
3574
3574
3574
3574
3574
3574
3574
3574
3574
3574
3574
3574
3574
3574
3574
3574
3574
3574
3574
3574
3574
3574
3574
3574
3574
3574
3574
3574
3574
3574
3574
3574
3574
3574
3574
3574
3574
3574
3574
3574
3574
3574
3574
3574
3574
3574
3574
3574
3574
3574
3574
3574
3574
3574
3574
3574
3574
3574
3574
3574
3574
3574
3574
3574
3574
3574
3574
3574
3574
3574
3574
3574
3574
3574
3574
3574
3574
3574
3574
3574
3574
3574
3574
3574
3574
3574
3574
3574
3574
3574
3574
3574
3574
3574
3574
3574
3574
3574
3574
3574
3574
3574
3574
3574
3574
3574
3574
3574
3574
3574
3574
3574
3574
3574
3574
3574
3574
3574
3574
3574
3574
3574
3574
3574
3574
3574
3574
3574
3574
3574
3574
3574
3574
3574
3574
3574
3574
3574
3574
3574
3574
3574
3574
3574
3574
3574
3574
3574
3574
3574
3574
3574
3574
3574
3574
3574
3574
3574
3574
3574
3574
3574
3574
3574
3574
3574
3574
3574
3574
3574
3574
3574
3574
3574
3574
3574
3574
3574
3574
3574
3574
3574
3574
3574
3574
3574
3574
3574
3574
3574
3574
3574
3574
3574
3574
3574
3574
3574
3574
3574
3574
3574
3574
3574
3574
3574
3574
3574
3574
3574
3574
3574
3574
3574
3574
3574
3574
3574
3574
3574
3574
3574
3574
3574
3574
3574
3574
3574
3574
3574
3574
3574
3574
3574
3574
3574
3574
3574
3574
3574
3574
3574
3574
3574
3574
3574
3574
3574
3574
3574
3574
3574
3574
3574
3574
3574
3574
3574
3574
3574
3574
3574
3574
3574
3574
3574
3574
3574
3574
3574
3574
3574
3574
3574
3574
3574
3574
3574
3574
3574
3574
3574
3574
3574
3574
3574
3574
3574
3574
3574
3574
3574
3574
3574
3574
3574
3574
3574
3574
3574
3574
3574
3574
3574
3574
3574
3574
3574
3574
3574
3574
3574
3574
3574
3574
3574
3574
3574
3574
3574
3574
3574
3574
3574
3574
3574
3574
3574
3574
3574
3574
3574
3574
3574
3574
3574
3574
3574
3574
3574
3574
3574
3574
3574
3574
3574
3574
3574
3574
3574
3574
3574
3574
3574
